(declare-fun v0 () Bool)
(declare-fun v1 () Bool)
(declare-fun v3 () Bool)
(declare-fun v9 () Bool)
(declare-fun v11 () Bool)
(declare-fun v13 () Bool)
(declare-fun v14 () Bool)
(declare-fun v18 () Bool)
(declare-fun v19 () Bool)
(declare-fun r4 () Real)
(declare-fun r5 () Real)
(declare-fun r7 () Real)
(declare-fun v26 () Bool)
(declare-fun v29 () Bool)
(declare-fun r8 () Real)
(declare-fun r9 () Real)
(declare-fun v45 () Bool)
(declare-fun r10 () Real)
(declare-fun v60 () Bool)
(declare-fun v63 () Bool)
(declare-fun r12 () Real)
(declare-fun v117 () Bool)
(declare-fun r18 () Real)
(declare-fun v289 () Bool)
(assert (or v14 (xor true false v60 (distinct 19 0.0 r12)) v63 v60 false (xor v63 v14 v9)))
(assert (and (=> v117 (not (= (- r5 19 (+ (- 0.63758) r7) (- 19 7119.0) 595049096.0) (/ (- (- r8 r5 (- (- (- 19 7119.0))))) (- r8))))) (> r18 (- (* (* (- (- (- 19 7119.0))) r8 (- (- 19 7119.0) 0.83854 (- (* 19 r4 (- r5 19 (+ (- 0.63758) r7) (- 19 7119.0) 595049096.0) 19)) (- 19 (- 7119.0) (+ 241.0 (* 19 r4 (- r5 19 (+ (- 0.63758) r7) (- 19 7119.0) 595049096.0) 19) 0.63758 r4)) (- 7119.0)) (- r8) (* 19 r4 (- r5 19 (+ (- 0.63758) r7) (- 19 7119.0) 595049096.0) 19)) (* 595049096.0 0.83854) (/ 0.63758 586.0765662) (/ (* 595049096.0 0.83854) (- (+ (- 586.0765662 (- 19 (- 7119.0) (+ 241.0 (* 19 r4 (- r5 19 (+ (- 0.63758) r7) (- 19 7119.0) 595049096.0) 19) 0.63758 r4))) (- 7119.0) (- 910.5) (/ (- r8) (- (/ 0.63758 586.0765662) (- (- 19 (- 7119.0) (+ 241.0 (* 19 r4 (- r5 19 (+ (- 0.63758) r7) (- 19 7119.0) 595049096.0) 19) 0.63758 r4))) (* (- (- r8 r5 (- (- (- 19 7119.0))))) (- 7119.0) 83480.0 (- (* 19 r4 (- r5 19 (+ (- 0.63758) r7) (- 19 7119.0) 595049096.0) 19)) (* 19 r4 (- r5 1 9 (+ (- 0.63758) r7) (- 19 7119.0) 595049096.0) 19)) r10 (- (* (- r8) (/ (- (- 19 (- 7119.0) (+ 241.0 (* 19 r4 (- r5 19 (+ (- 0.63758) r7) (- 19 7119.0) 595049096.0) 19) 0.63758 r4))) r7) (- (- 19 7119.0)) 910.5 0.63758) (- r9 (/ 0.63758 586.0765662) (- 19 7119.0) 19)))))))) (* r12 (/ 241.0 (/ (- (- 19 (- 7119.0) (+ 241.0 (* 19 r4 (- r5 19 (+ (- 0.63758) r7) (- 19 7119.0) 595049096.0) 19) 0.63758 r4))) r7)))) (* 0.63758 (- (- (* 19 r4 (- r5 19 (+ (- 0.63758) r7) (- 19 7119.0) 595049096.0) 19)) (+ (- 7119.0) 241.0 0.83854 0.63758 r5) (+ (- 0.63758) r7))))))
(assert (or (= (- (- 0.63758)) (- (- 0.63758)) (+ (- 82614143328.0) (- (- r5 19 (+ (- 0.63758) r7) (- 19 7119.0) 595049096.0)) (- (* 19 r4 (- r5 19 (+ (- 0.63758) r7) (- 19 7119.0) 595049096.0) 19))) (- (- (- (* (- r8) (/ (- (- 19 (- 7119.0) (+ 241.0 (* 19 r4 (- r5 19 (+ (- 0.63758) r7) (- 19 7119.0) 595049096.0) 19) 0.63758 r4))) r7) (- (- 19 7119.0)) 910.5 0.63758) (- r9 (/ 0.63758 586.0765662) (- 19 7119.0) 19))) (- 586.0765662) 0.82091))))
(assert (or v289 (and (> r18 (- (* (* (- (- (- 19 7119.0))) r8 (- (- 19 7119.0) 0.83854 (- (* 19 r4 (- r5 19 (+ (- 0.63758) r7) (- 19 7119.0) 595049096.0) 19)) (- 19 (- 7119.0) (+ 241.0 (* 19 r4 (- r5 19 (+ (- 0.63758) r7) (- 19 7119.0) 595049096.0) 19) 0.63758 r4)) (- 7119.0)) (- r8) (* 19 r4 (- r5 19 (+ (- 0.63758) r7) (- 19 7119.0) 595049096.0) 19)) (* 595049096.0 0.83854) (/ 0.63758 586.0765662) (/ (* 595049096.0 0 . 83854) (- (+ (- 586.0765662 (- 19 (- 7119.0) (+ 241.0 (* 19 r4 (- r5 19 (+ (- 0.63758) r7) (- 19 7119.0) 595049096.0) 19) 0.63758 r4))) (- 71 19.0) (- 910.5) (/ (- r8) (- (/ 0.63758 586.0765662) (- (- 19 (- 7119.0) (+ 241.0 (* 19 r4 (- r5 19 (+ (- 0.63758) r7) (- 19 7119.0) 59504909 6.0) 19) 0.63758 r4))) (* (- (- r8 r5 (- (- (- 19 7119.0))))) (- 7119.0) 83480.0 (- (* 19 r4 (- r5 19 (+ (- 0.63758) r7) (- 19 7119.0) 595049 0 96.0) 19)) (* 19 r4 (- r5 19 (+ (- 0.63758) r7) (- 19 7119.0) 595049096.0) 19)) r10 (- (* (- r8) (/ (- (- 19 (- 7119.0) (+ 241.0 (* 19 r4 (- r5 19 (+ (- 0.63758) r7) (- 19 7119.0) 595049096.0) 19) 0.63758 r4))) r7) (- (- 19 7119.0)) 910.5 0.63758) (- r9 (/ 0.63758 586.0765662) (- 19 7119.0) 19)))))))) (* r12 (/ 241.0 (/ (- (- 19 (- 7119.0) (+ 241.0 (* 19 r4 (- r5 19 (+ (- 0.63758) r7) (- 19 7119.0) 595049096.0) 19) 0.6 3758 r4))) r7)))) (* 0.63758 (- (- (* 19 r4 (- r5 19 (+ (- 0.63758) r7) (- 19 7119.0) 595049096.0) 19)) (+ (- 7119.0) 241.0 0.83854 0.63758 r 5) (+ (- 0.63758) r7)))) (=> v117 (distinct (- r5 19 (+ (- 0.63758) r7) (- 19 7119.0) 595049096.0) (/ (- (- r8 r5 (- (- (- 19 7119.0))))) (- r8)))))))
(check-sat)
